R=9;
C=21;
bomb=[|0,0,0,0,0,0,0,0,0,0,0,0,M,0,0,0,0,0,0,0,0,|
0,0,0,0,0,0,0,0,0,0,0,0,0,M,0,0,0,M,0,0,0,|
0,0,0,0,0,0,0,0,0,0,0,0,0,0,0,0,0,0,0,0,0,|
0,M,0,0,0,0,M,0,0,0,0,0,0,0,0,0,0,0,0,0,0,|
0,0,0,0,0,0,0,0,0,0,0,0,0,0,0,0,0,0,0,0,0,|
0,0,0,0,0,0,0,0,0,0,0,M,0,0,0,0,0,0,M,0,0,|
0,M,0,0,0,0,0,0,0,0,0,0,0,0,0,0,0,0,0,0,0,|
0,M,0,0,0,0,0,0,0,0,0,0,0,0,0,0,0,0,0,0,0,|
0,0,0,0,0,0,0,0,0,0,0,0,0,0,0,0,0,0,0,0,0,|];